myproject/instances/20nodes/rnd11_20.tsp
NAME : rnd11_20.tsp
TYPE : TSP
DIMENSION : 20
EDGE_WEIGHT_TYPE : EUC_2D
NODE_COORD_SECTION
1 43 510
2 865 929
3 126 636
4 25 356
5 586 321
6 561 182
7 445 451
8 687 981
9 111 421
10 737 887
11 604 566
12 518 858
13 458 109
14 171 902
15 143 9
16 298 466
17 778 515
18 98 69
19 246 637
20 122 100
