myproject/instances/20nodes/rnd11_20.opt.tour
NAME : rnd11_20.tsp.tsp.opt.tour
TYPE : TOUR
DIMENSION : 20
TOUR_SECTION
1
4
20
18
15
13
6
5
7
11
17
2
10
8
12
14
3
19
16
9
-1